Version identifier: 22.1.0.0 | 2022-03-09 | 1a383f8ce
CPXPARAM_Threads                                 1
CPXPARAM_MIP_Strategy_VariableSelect             3
CPXPARAM_TimeLimit                               599.99998218500002
1 of 1 MIP starts provided solutions.
MIP start 'm1' defined initial solution with objective 1.0000.
Tried aggregator 1 time.
MIP Presolve eliminated 14 rows and 0 columns.
MIP Presolve modified 9 coefficients.
Reduced MIP has 5006 rows, 10000 columns, and 130643 nonzeros.
Reduced MIP has 10000 binaries, 0 generals, 0 SOSs, and 0 indicators.
Presolve time = 0.09 sec. (69.16 ticks)
Probing time = 0.01 sec. (4.83 ticks)
Tried aggregator 1 time.
Detecting symmetries...
Reduced MIP has 5006 rows, 10000 columns, and 130643 nonzeros.
Reduced MIP has 10000 binaries, 0 generals, 0 SOSs, and 0 indicators.
Presolve time = 0.10 sec. (72.95 ticks)
Probing time = 0.01 sec. (4.83 ticks)
Clique table members: 2991.
MIP emphasis: balance optimality and feasibility.
MIP search method: dynamic search.
Parallel mode: none, using 1 thread.
Root relaxation solution time = 5.13 sec. (4982.86 ticks)

        Nodes                                         Cuts/
   Node  Left     Objective  IInf  Best Integer    Best Bound    ItCnt     Gap

*     0+    0                            1.0000    10000.0000              --- 
      0     0      500.0000  2116        1.0000      500.0000    10906     --- 
*     0+    0                          500.0000      500.0000             0.00%
      0     0        cutoff            500.0000      500.0000    10906    0.00%
Elapsed time = 45.64 sec. (44110.93 ticks, tree = 0.01 MB, solutions = 2)

Root node processing (before b&c):
  Real time             =   45.64 sec. (44111.33 ticks)
Sequential b&c:
  Real time             =    0.00 sec. (0.00 ticks)
                          ------------
Total (root+branch&cut) =   45.64 sec. (44111.33 ticks)
Primal:	500
Dual:	500
Status:	Optimal
Time:	45.65
Sequence:
	15
	16
	5
	15
	16
	5
	12
	19
	2
	12
	19
	18
	6
	19
	2
	12
	19
	18
	6
	16
	5
	15
	16
	2
	6
	19
	18
	5
	19
	12
	2
	19
	12
	5
	19
	12
	2
	19
	12
	2
	19
	18
	6
	19
	2
	6
	16
	2
	11
	3
	13
	15
	3
	13
	11
	3
	13
	11
	3
	0
	11
	3
	0
	15
	3
	0
	15
	3
	13
	11
	14
	0
	11
	3
	0
	11
	3
	0
	11
	3
	13
	11
	14
	0
	11
	14
	0
	11
	14
	0
	11
	3
	13
	15
	14
	0
	11
	14
	0
	11
	3
	13
	11
	3
	13
	11
	3
	0
	11
	14
	0
	11
	14
	13
	7
	8
	13
	7
	8
	0
	7
	8
	0
	2
	17
	10
	2
	17
	10
	5
	8
	10
	4
	14
	9
	18
	14
	9
	18
	14
	9
	18
	14
	9
	18
	14
	9
	18
	3
	9
	18
	3
	10
	18
	17
	10
	4
	8
	10
	4
	17
	10
	18
	8
	0
	7
	17
	0
	7
	17
	13
	7
	17
	13
	7
	8
	13
	7
	17
	0
	18
	17
	10
	18
	8
	0
	7
	8
	13
	7
	8
	13
	7
	8
	13
	7
	8
	13
	7
	8
	0
	7
	8
	13
	7
	8
	13
	7
	3
	13
	15
	3
	13
	11
	3
	13
	7
	3
	13
	11
	14
	0
	11
	14
	13
	7
	8
	0
	1
	17
	10
	1
	8
	10
	4
	17
	10
	4
	8
	10
	4
	8
	10
	4
	8
	10
	1
	8
	10
	2
	17
	10
	1
	14
	9
	2
	14
	9
	2
	14
	9
	2
	14
	9
	1
	18
	17
	0
	7
	8
	13
	7
	8
	4
	10
	17
	18
	10
	17
	18
	10
	8
	4
	10
	14
	18
	9
	14
	18
	9
	3
	18
	9
	3
	18
	9
	3
	4
	9
	14
	4
	9
	14
	4
	9
	14
	4
	9
	3
	18
	9
	3
	18
	9
	14
	18
	9
	14
	4
	9
	3
	4
	9
	3
	2
	9
	14
	4
	10
	8
	4
	10
	17
	4
	10
	17
	18
	10
	17
	2
	10
	17
	2
	7
	16
	5
	15
	16
	5
	7
	16
	6
	7
	16
	2
	6
	10
	5
	17
	10
	5
	8
	10
	5
	8
	10
	5
	14
	9
	18
	2
	19
	1
	6
	19
	5
	12
	19
	5
	12
	19
	4
	6
	10
	14
	1
	15
	16
	5
	15
	16
	5
	15
	16
	5
	18
	19
	6
	2
	19
	18
	2
	16
	7
	1
	16
	6
	18
	19
	12
	2
	19
	6
	1
	19
	12
	5
	19
	6
	1
	19
	6
	1
	16
	15
	5
	16
	15
	5
	16
	15
	5
	16
	15
	5
	16
	15
	5
	16
	15
	1
	4
	19
	6
	18
	19
	12
	2
	19
	6
	1
	19
	6
	1
	19
	6
	1
	19
	6
	4
	19
	2
	12
	19
	4
	1
	19
	1
	6
	19
	1
	18
	19
	6
	4
	19
	6
	1
	19
	12
	2
	19
	12
	5
	16
	15
	5
	16
	15
	5
	16
	15
	5
	16
	6
	2
	19
	18
	6
	19
